
(set-logic ALL) 

(declare-datatype MyList ((Nil) (Cons (head Real) (tail MyList)) )) 
(declare-fun l0 () MyList) 
(declare-fun l1 () MyList) 
(declare-fun l2 () MyList) 
(declare-fun l3 () MyList) 
(declare-fun i0 () Real) 
(declare-fun i1 () Real) 
(assert (and (= l0 l0) (= l3 Nil) (= l0 l0)) )
(assert (is-Cons Nil) )
(assert (and (= l1 Nil) (= l1 Nil) (is-Nil Nil)) )
(assert (is-Cons l2) )
(assert (and (is-Cons Nil) (= l2 Nil)) )
(assert (is-Nil Nil) )
(assert (is-Nil Nil) )
(assert (or (is-Nil Nil) (is-Cons Nil) (= l3 Nil)) )
(check-sat)
